40 62 74 70 99 64 95 39 28 16 4 58 23 96 61 50 51 46 15 13 25 81 89 75 8 21 22 
88 6 56 42 47 30 69 24 68 29 43 53 54 63 26 7 52 90 33 60 57 48 79 73 78 77 82 49 
41 59 32 36 100 10 92 83 38 55 91 98 94 45 93 35 44 76 20 34 37 9 11 17 18 19 14 
67 86 80 65 66 5 84 27 71 72 12 2 31 1 97 3 85 87 

